--- Job dynamic_calib Start 06/08/23 15:54:39 42.5.0 cf11b917 WEX-WEI x86 64bit/MS Windows
--- Applying:
    C:\GAMS\42\gmsprmNT.txt
--- GAMS Parameters defined
    Input h:\windc\github\windc_build\household\dynamic_calib.gms
    Output h:\windc\github\windc_build\household\lst\dynamic_calib_2014.lst
    ScrDir h:\windc\github\windc_build\household\225b\
    SysDir C:\GAMS\42\
    LogOption 4
    LogFile h:\windc\github\windc_build\household\lst\dynamic_calib_2014.log
    --year 2014
Licensee: Small MUD - 5 User License                     G230511|0002AO-GEN
          University of Wisconsin-Madison, Agricultural & Applied EconDC289
          C:\Users\Thomas F. Rutherford\Documents\GAMS\gamslice.txt
          License Admin: Thomas F. Rutherford, rutherford@aae.wisc.edu     
Processor information: 1 socket(s), 12 core(s), and 24 thread(s) available
GAMS 42.5.0   Copyright (C) 1987-2023 GAMS Development. All rights reserved
--- Starting compilation
--- dynamic_calib.gms(30) 2 Mb
--- . windc_coredata.gms(17) 2 Mb
--- GDXin=h:\windc\github\windc_build\core\WiNDCdatabase.gdx
--- GDX File ($gdxIn) h:\windc\github\windc_build\core\WiNDCdatabase.gdx
--- . windc_coredata.gms(209) 202 Mb
--- dynamic_calib.gms(39) 202 Mb
--- GDXin=h:\windc\github\windc_build\household\gdx\capital_tax_rates.gdx
--- GDX File ($gdxIn) h:\windc\github\windc_build\household\gdx\capital_tax_rates.gdx
--- dynamic_calib.gms(59) 202 Mb
--- GDXin=h:\windc\github\windc_build\household\gdx\i0_2014.gdx
--- GDX File ($gdxIn) h:\windc\github\windc_build\household\gdx\i0_2014.gdx
--- dynamic_calib.gms(298) 202 Mb
--- Starting execution: elapsed 0:00:00.511
--- dynamic_calib.gms(238) 219 Mb
--- GDX File (execute_unload) h:\windc\github\windc_build\household\225b\totgdp.gdx
--- dynamic_calib.gms(239) 219 Mb
--- dynamic_calib.gms(437) 233 Mb
--- Generating QCP model sscalib
--- dynamic_calib.gms(438) 386 Mb
---   21,849 rows  543,151 columns  1,625,830 non-zeroes
---   1,193,128 nl-code  238,623 nl-non-zeroes
--- Range statistics (absolute non-zero finite values)
--- RHS       [min, max] : [ 1.553E-24, 8.249E+02] - Zero values observed as well
--- Bound     [min, max] : [ 2.357E-17, 1.499E+02] - Zero values observed as well
--- Matrix    [min, max] : [ 1.000E+00, 1.000E+00] - Zero values observed as well
--- dynamic_calib.gms(438) 367 Mb
--- Executing CPLEX (Solvelink=2): elapsed 0:00:10.492

IBM ILOG CPLEX   42.5.0 cf11b917 Mar 30, 2023          WEI x86 64bit/MS Window

--- GAMS/Cplex licensed for continuous and discrete problems.
--- GMO Q Extraction (ThreePass): 1.72s
--- GMO setup time: 1.74s
--- Space for names approximately 13.86 Mb
--- Use option 'names no' to turn use of names off
--- GMO memory 192.58 Mb (peak 200.37 Mb)
--- Dictionary memory 0.00 Mb
--- Cplex 22.1.1.0 link memory 10.61 Mb (peak 47.24 Mb)
--- Starting Cplex

Version identifier: 22.1.1.0 | 2022-11-27 | 9160aff4d
CPXPARAM_Advance                                 0
CPXPARAM_Threads                                 1
CPXPARAM_MIP_Display                             4
CPXPARAM_MIP_Pool_Capacity                       0
CPXPARAM_MIP_Tolerances_AbsMIPGap                0
Tried aggregator 1 time.
QP Presolve eliminated 51 rows and 3622 columns.
Aggregator did 399 substitutions.
Reduced QP has 21398 rows, 539130 columns, and 1074639 nonzeros.
Reduced QP objective Q matrix has 236908 nonzeros.
Presolve time = 0.28 sec. (176.71 ticks)
Parallel mode: none, using 1 thread for barrier
Number of nonzeros in lower triangle of A*A' = 535509
Using Approximate Minimum Degree ordering
Total time for automatic ordering = 0.03 sec. (31.29 ticks)
Summary statistics for Cholesky factor:
  Rows in Factor            = 21398
  Integer space required    = 292938
  Total non-zeros in factor = 980856
  Total FP ops to factor    = 83873002
 Itn      Primal Obj        Dual Obj  Prim Inf Upper Inf  Dual Inf          
   0   1.0778254e+14  -1.0778253e+14  2.51e+07  0.00e+00  4.45e+12
   1   3.9513370e+13  -3.9513361e+13  1.52e+07  0.00e+00  2.70e+12
   2   1.8443368e+13  -1.8443361e+13  1.04e+07  0.00e+00  1.84e+12
   3   5.8020441e+12  -5.8020380e+12  5.82e+06  0.00e+00  1.03e+12
   4   2.2124948e+12  -2.2124889e+12  3.59e+06  0.00e+00  6.38e+11
   5   4.9301480e+11  -4.9301070e+11  1.70e+06  0.00e+00  3.01e+11
   6   3.1364198e+11  -3.1363807e+11  1.35e+06  0.00e+00  2.40e+11
   7   5.9130773e+10  -5.9127689e+10  5.88e+05  0.00e+00  1.04e+11
   8   2.1678870e+10  -2.1676496e+10  3.56e+05  0.00e+00  6.31e+10
   9   6.2886225e+09  -6.2870342e+09  1.92e+05  0.00e+00  3.40e+10
  10   6.9800682e+08  -6.9732119e+08  6.38e+04  0.00e+00  1.13e+10
  11   2.1598139e+08  -2.1546213e+08  3.55e+04  0.00e+00  6.29e+09
  12   1.0450403e+08  -1.0405874e+08  2.46e+04  0.00e+00  4.37e+09
  13   1.0873934e+07  -1.0677345e+07  7.88e+03  0.00e+00  1.40e+09
  14   1.5646859e+06  -1.4919948e+06  2.93e+03  0.00e+00  5.21e+08
  15   7.3299412e+05  -6.8403653e+05  1.98e+03  0.00e+00  3.52e+08
  16   2.4838228e+05  -2.2083810e+05  1.12e+03  0.00e+00  1.99e+08
  17   8.3308635e+04  -6.8170611e+04  6.15e+02  0.00e+00  1.09e+08
  18   2.7930013e+04  -1.9908901e+04  3.26e+02  0.00e+00  5.78e+07
  19   1.2624265e+04  -7.7483798e+03  1.98e+02  0.00e+00  3.52e+07
  20   6.4249648e+03  -3.3303644e+03  1.26e+02  0.00e+00  2.23e+07
  21   3.0334637e+03  -1.2464490e+03  7.27e+01  0.00e+00  1.29e+07
  22   1.6552924e+03  -5.4832304e+02  4.50e+01  0.00e+00  7.99e+06
  23   8.0490170e+02  -2.0602512e+02  2.44e+01  0.00e+00  4.33e+06
  24   4.4338239e+02  -9.3047555e+01  1.43e+01  0.00e+00  2.54e+06
  25   2.6581381e+02  -4.7990693e+01  8.90e+00  0.00e+00  1.58e+06
  26   1.4862365e+02  -2.3388750e+01  5.12e+00  0.00e+00  9.09e+05
  27   8.7252070e+01  -1.2372243e+01  3.07e+00  0.00e+00  5.44e+05
  28   4.9796486e+01  -6.4934373e+00  1.78e+00  0.00e+00  3.15e+05
  29   3.1365944e+01  -3.8324705e+00  1.13e+00  0.00e+00  2.01e+05
  30   1.6865044e+01  -1.9480456e+00  6.15e-01  0.00e+00  1.09e+05
  31   8.8700819e+00  -9.8132501e-01  3.26e-01  0.00e+00  5.79e+04
  32   5.6026319e+00  -5.9480902e-01  2.07e-01  0.00e+00  3.68e+04
  33   3.7995319e+00  -3.8741460e-01  1.41e-01  0.00e+00  2.51e+04
  34   2.2423922e+00  -2.1952813e-01  8.40e-02  0.00e+00  1.49e+04
  35   9.9950971e-01  -9.5357066e-02  3.76e-02  0.00e+00  6.67e+03
  36   4.8080004e-01  -4.3512003e-02  1.81e-02  0.00e+00  3.22e+03
  37   1.9019611e-01  -1.5284746e-02  7.13e-03  0.00e+00  1.26e+03
  38   8.9492194e-02  -5.1083155e-03  3.30e-03  0.00e+00  5.85e+02
  39   3.9924552e-02  -9.7782943e-05  1.40e-03  0.00e+00  2.49e+02
  40   1.7139221e-02   2.2320710e-03  5.23e-04  0.00e+00  9.28e+01
  41   9.0041713e-03   3.0977336e-03  2.08e-04  0.00e+00  3.69e+01
  42   4.9582936e-03   3.5322814e-03  4.99e-05  0.00e+00  8.86e+00
  43   3.9520994e-03   3.6502217e-03  1.05e-05  0.00e+00  1.86e+00
  44   3.7546081e-03   3.6755932e-03  2.74e-06  0.00e+00  4.87e-01
  45   3.6962777e-03   3.6833865e-03  4.45e-07  0.00e+00  7.89e-02
  46   3.6853706e-03   3.6849447e-03  1.38e-08  0.00e+00  2.45e-03

Warning:  Barrier optimality criterion affected by large objective shift.
Barrier time = 3.03 sec. (7848.40 ticks)

Total time on 1 threads = 3.03 sec. (7848.40 ticks)

--- QP status (1): optimal.
--- Cplex Time: 3.03sec (det. 7848.40 ticks)


Optimal solution found
Objective:            0.003685

--- Reading solution for model sscalib
--- Executing after solve: elapsed 0:00:24.438
--- dynamic_calib.gms(506) 372 Mb
--- GDX File (execute_unload) h:\windc\github\windc_build\household\gdx\dynamic_parameters_2014.gdx
*** Status: Normal completion
--- Job dynamic_calib.gms Stop 06/08/23 15:55:05 elapsed 0:00:26.664
